language ESSENCE' 1.0
$ loaded file: carseqdata/csplib-instance-30
letting numcars=200
letting numclasses=26
letting numoptions=5
letting optMax=[1, 2, 1, 2, 1]
letting windowSize=[2, 3, 3, 5, 5]
letting numberPerClass=[4, 6, 59, 10, 1, 13, 23, 3, 11, 6, 1, 7, 2, 1, 1, 5, 2, 1, 14, 17, 2, 2, 1, 1, 1, 6]
letting optionsRequired=[[1, 0, 1, 0, 0], [1, 0, 0, 1, 0], [0, 1, 0, 0, 0], [0, 1, 0, 1, 0], [1, 0, 0, 1, 1], [1, 1, 0, 0, 0], [0, 0, 1, 0, 0], [1, 1, 1, 1, 0], [0, 0, 0, 0, 1], [0, 1, 1, 0, 0], [1, 0, 1, 0, 1], [1, 1, 0, 1, 0], [0, 0, 1, 0, 1], [1, 1, 0, 0, 1], [1, 1, 1, 0, 1], [0, 0, 1, 1, 0], [1, 0, 0, 0, 1], [0, 0, 0, 1, 1], [0, 0, 0, 1, 0], [1, 0, 0, 0, 0], [0, 1, 1, 1, 0], [1, 0, 1, 1, 0], [1, 1, 0, 1, 1], [1, 1, 1, 0, 0], [0, 0, 1, 0, 1], [0, 1, 0, 0, 0]]
